The shortest tour is :33600.6
1 9 40 15 12 11 23 13 25 14 34 3 22 16 41 29 2 26 4 35 45 10 24 42 5 48 39 32 21 47 20 33 46 36 30 43 17 27 19 37 6 28 7 18 44 31 38 8 1

The shortest tour is :33588.3
1 9 40 3 22 16 41 34 29 2 26 4 35 45 10 24 42 5 48 39 32 21 13 25 14 23 11 47 20 12 15 33 46 36 30 43 17 27 19 37 6 28 7 18 44 31 38 8 1

The shortest tour is: 33523.7
1 8 38 31 44 18 7 28 6 37 19 27 17 43 30 36 46 33 20 47 21 32 39 48 5 42 24 10 45 35 4 26 2 29 34 41 16 22 3 23 14 25 13 11 12 15 40 9 1

NAME : att48.opt.tour
COMMENT : Optimum solution  for att48   
TYPE : TOUR
DIMENSION : 48
TOUR_SECTION
1
8
38
31
44
18
7
28
6
37
19
27
17
43
30
36
46
33
20
47
21
32
39
48
5
42
24
10
45
35
4
26
2
29
34
41
16
22
3
23
14
25
13
11
12
15
40
9
-1
EOF
